22 3 19 8 22 8 20 8 19 8 17 8 15 0 14 0 12 0 10 0 8 8 7 8 5 8 3 8 2 8 0 8 
0 8 2 8 3 8 2 8 3 8 4 8 3 8 4 8 5 8 4 8 5 8 6 8 5 8 6 8 7 8 6 8 7 8 8 8 7 8 8 8 
7 8 10 8 8 8 7 8 8 8 10 8 12 8 14 8 15 8   
17 8 24 8 22 8 20 8 19 8 17 8 15 8 14 8 12 8 
10 8 16 8 15 8 14 8 12 8 10 8 8 8 7 8 5 8 
3 8 5 8 7 8 8 8 10 8 12 8 14 8 15 8 16 8 
22 3 19 8 22 8 20 8 19 8 17 8 15 0 14 0 12 0 10 0 8 8 7 8 5 8 3 8 2 8 0 8 
0 8 2 8 3 8 2 8 3 8 4 8 3 8 4 8 5 8 4 8 5 8 6 8 5 8 6 8 7 8 6 8 7 8 8 8 7 8 8 8 
7 8 10 8 8 8 7 8 8 8 10 8 12 8 14 8 15 8   
17 8 24 8 22 8 20 8 19 8 17 8 15 8 14 8 12 8 
14 8 17 8 15 8 14 8 15 8 17 8 19 8 20 8 22 8 
3 8 5 8 7 8 8 8 10 8 12 8 14 8 15 8 17 8 
22 3 19 8 22 8 20 8 19 8 17 8 15 0 14 0 12 0 10 0 8 8 7 8 5 8 3 8 2 8 0 8 
0 8 2 8 3 8 2 8 3 8 4 8 3 8 4 8 5 8 4 8 5 8 6 8 5 8 6 8 7 8 6 8 7 8 8 8 7 8 8 8 
7 8 10 8 8 8 7 8 8 8 10 8 12 8 14 8 15 8   
17 8 24 8 22 8 20 8 19 8 17 8 15 8 14 8 12 8 
10 8 16 8 15 8 14 8 12 8 10 8 8 8 7 8 5 8 
3 8 5 8 7 8 8 8 10 8 12 8 14 8 15 8 16 8 
22 3 19 8 22 8 20 8 19 8 17 8 15 0 14 0 12 0 10 0 8 8 7 8 5 8 3 8 2 8 0 8 
0 8 2 8 3 8 2 8 3 8 4 8 3 8 4 8 5 8 4 8 5 8 6 8 5 8 6 8 7 8 6 8 7 8 8 8 7 8 8 8 
7 8 10 8 8 8 7 8 8 8 10 8 12 8 14 8 15 8   
17 8 24 8 22 8 20 8 19 8 17 8 15 8 14 8 12 8 
14 8 17 8 15 8 14 8 15 8 17 8 19 8 20 8 22 8 
3 8 5 8 7 8 8 8 10 8 12 8 14 8 15 8 17 8 